
Gurobi 9.5.2 (win64) logging started Tue Jan 16 15:13:39 2024

Set parameter LogFile to value "./ccga_results/2024-01-16 15-13-26-74/MSP_TimeStampConvert_gurobi_log.txt"
Set parameter TimeLimit to value 7195

Gurobi 9.5.2 (win64) logging started Tue Jan 16 15:13:41 2024

Set parameter LogFile to value "./ccga_results/2024-01-16 15-13-26-74/MSP_TimeStampConvert_gurobi_log.txt"
Set parameter TimeLimit to value 7195
Gurobi Optimizer version 9.5.2 build v9.5.2rc0 (win64)
Thread count: 10 physical cores, 20 logical processors, using up to 20 threads
Optimize a model with 300 rows, 229 columns and 738 nonzeros
Model fingerprint: 0x73c47342
Variable types: 13 continuous, 216 integer (216 binary)
Coefficient statistics:
  Matrix range     [1e+00, 1e+00]
  Objective range  [1e+00, 1e+00]
  Bounds range     [1e+03, 1e+03]
  RHS range        [1e+00, 1e+00]
Found heuristic solution: objective 12000.000000

Explored 0 nodes (0 simplex iterations) in 0.00 seconds (0.00 work units)
Thread count was 1 (of 20 available processors)

Solution count 1: 12000 

Optimal solution found (tolerance 1.00e-02)
Best objective 1.200000000000e+04, best bound 1.200000000000e+04, gap 0.0000%

User-callback calls 21, time in user-callback 0.00 sec
Set parameter TimeLimit to value 7185
Gurobi Optimizer version 9.5.2 build v9.5.2rc0 (win64)
Thread count: 10 physical cores, 20 logical processors, using up to 20 threads
Optimize a model with 1081 rows, 481 columns and 3233 nonzeros
Model fingerprint: 0x1f0483a3
Variable types: 241 continuous, 240 integer (240 binary)
Coefficient statistics:
  Matrix range     [9e-01, 8e+02]
  Objective range  [1e+00, 1e+00]
  Bounds range     [1e+03, 1e+03]
  RHS range        [1e+00, 1e+08]

MIP start from previous solve did not produce a new incumbent solution

Presolve removed 371 rows and 141 columns
Presolve time: 0.01s
Presolved: 710 rows, 340 columns, 2331 nonzeros
Variable types: 196 continuous, 144 integer (144 binary)
Found heuristic solution: objective 5181.1111111
Found heuristic solution: objective 5406.1111111

Root relaxation: objective 9.050000e+03, 354 iterations, 0.00 seconds (0.00 work units)

    Nodes    |    Current Node    |     Objective Bounds      |     Work
 Expl Unexpl |  Obj  Depth IntInf | Incumbent    BestBd   Gap | It/Node Time

*    0     0               0    9050.0000000 9050.00000  0.00%     -    0s

Explored 1 nodes (486 simplex iterations) in 0.03 seconds (0.02 work units)
Thread count was 20 (of 20 available processors)

Solution count 3: 9050 5406.11 5181.11 

Optimal solution found (tolerance 1.00e-02)
Best objective 9.050000000000e+03, best bound 9.050000000000e+03, gap 0.0000%

User-callback calls 798, time in user-callback 0.00 sec
Set parameter TimeLimit to value 7183
Gurobi Optimizer version 9.5.2 build v9.5.2rc0 (win64)
Thread count: 10 physical cores, 20 logical processors, using up to 20 threads
Optimize a model with 1862 rows, 733 columns and 5728 nonzeros
Model fingerprint: 0xd2b49b7e
Variable types: 469 continuous, 264 integer (264 binary)
Coefficient statistics:
  Matrix range     [9e-01, 8e+02]
  Objective range  [1e+00, 1e+00]
  Bounds range     [1e+03, 1e+03]
  RHS range        [1e+00, 1e+08]

MIP start from previous solve did not produce a new incumbent solution

Presolve removed 1138 rows and 393 columns
Presolve time: 0.01s
Presolved: 724 rows, 340 columns, 2356 nonzeros
Variable types: 263 continuous, 77 integer (77 binary)
Found heuristic solution: objective 2216.1111111

Root relaxation: objective 3.793684e+03, 352 iterations, 0.00 seconds (0.00 work units)

    Nodes    |    Current Node    |     Objective Bounds      |     Work
 Expl Unexpl |  Obj  Depth IntInf | Incumbent    BestBd   Gap | It/Node Time

     0     0 3793.68421    0    6 2216.11111 3793.68421  71.2%     -    0s
H    0     0                    3520.0000000 3793.68421  7.78%     -    0s
H    0     0                    3725.0000000 3793.68421  1.84%     -    0s

Cutting planes:
  Gomory: 2
  Cover: 2
  MIR: 4
  Flow cover: 3
  RLT: 2
  Relax-and-lift: 4

Explored 1 nodes (352 simplex iterations) in 0.03 seconds (0.03 work units)
Thread count was 20 (of 20 available processors)

Solution count 3: 3725 3520 2216.11 

Optimal solution found (tolerance 1.00e-02)
Best objective 3.725000000000e+03, best bound 3.725000000000e+03, gap 0.0000%

User-callback calls 940, time in user-callback 0.00 sec
Gurobi Optimizer version 9.5.2 build v9.5.2rc0 (win64)
Thread count: 10 physical cores, 20 logical processors, using up to 20 threads
Optimize a model with 2643 rows, 985 columns and 8223 nonzeros
Model fingerprint: 0x8204d597
Variable types: 697 continuous, 288 integer (288 binary)
Coefficient statistics:
  Matrix range     [9e-01, 8e+02]
  Objective range  [1e+00, 1e+00]
  Bounds range     [1e+03, 1e+03]
  RHS range        [1e+00, 1e+08]

MIP start from previous solve did not produce a new incumbent solution

Presolve removed 1483 rows and 460 columns
Presolve time: 0.02s
Presolved: 1160 rows, 525 columns, 3833 nonzeros
Variable types: 454 continuous, 71 integer (71 binary)
Found heuristic solution: objective 1890.0000000

Root relaxation: objective 2.052880e+03, 701 iterations, 0.01 seconds (0.01 work units)

    Nodes    |    Current Node    |     Objective Bounds      |     Work
 Expl Unexpl |  Obj  Depth IntInf | Incumbent    BestBd   Gap | It/Node Time

     0     0 2052.87975    0   12 1890.00000 2052.87975  8.62%     -    0s
     0     0 2048.20608    0   20 1890.00000 2048.20608  8.37%     -    0s
     0     0 2048.02239    0   20 1890.00000 2048.02239  8.36%     -    0s
H    0     0                    1950.0000000 2048.02239  5.03%     -    0s
     0     0 2036.38061    0   19 1950.00000 2036.38061  4.43%     -    0s
     0     0 2036.38061    0   19 1950.00000 2036.38061  4.43%     -    0s
H    0     0                    1965.5555556 2036.38061  3.60%     -    0s
     0     0 2031.12868    0   25 1965.55556 2031.12868  3.34%     -    0s
     0     0 2019.73684    0   17 1965.55556 2019.73684  2.76%     -    0s
     0     0 2016.11111    0   22 1965.55556 2016.11111  2.57%     -    0s
     0     0 2015.97938    0   27 1965.55556 2015.97938  2.57%     -    0s
     0     0 2006.97157    0   27 1965.55556 2006.97157  2.11%     -    0s

Cutting planes:
  Implied bound: 4
  MIR: 20
  Flow cover: 25
  Relax-and-lift: 9

Explored 1 nodes (951 simplex iterations) in 0.11 seconds (0.10 work units)
Thread count was 20 (of 20 available processors)

Solution count 3: 1965.56 1950 1890 

Optimal solution found (tolerance 1.00e-02)
Best objective 1.965555555556e+03, best bound 1.984633447881e+03, gap 0.9706%

User-callback calls 1007, time in user-callback 0.00 sec
Set parameter TimeLimit to value 7124
Gurobi Optimizer version 9.5.2 build v9.5.2rc0 (win64)
Thread count: 10 physical cores, 20 logical processors, using up to 20 threads
Optimize a model with 3424 rows, 1237 columns and 10718 nonzeros
Model fingerprint: 0xcbcb0f4d
Variable types: 925 continuous, 312 integer (312 binary)
Coefficient statistics:
  Matrix range     [9e-01, 8e+02]
  Objective range  [1e+00, 1e+00]
  Bounds range     [1e+03, 1e+03]
  RHS range        [1e+00, 1e+08]

MIP start from previous solve produced solution with objective 1906.11 (0.01s)
Loaded MIP start from previous solve with objective 1906.11

Presolve removed 1802 rows and 520 columns
Presolve time: 0.03s
Presolved: 1622 rows, 717 columns, 5382 nonzeros
Variable types: 646 continuous, 71 integer (71 binary)

Root relaxation: objective 2.044126e+03, 972 iterations, 0.02 seconds (0.01 work units)

    Nodes    |    Current Node    |     Objective Bounds      |     Work
 Expl Unexpl |  Obj  Depth IntInf | Incumbent    BestBd   Gap | It/Node Time

     0     0 2044.12613    0   11 1906.11111 2044.12613  7.24%     -    0s
     0     0 2029.99293    0   19 1906.11111 2029.99293  6.50%     -    0s
     0     0 2029.54751    0   19 1906.11111 2029.54751  6.48%     -    0s
     0     0 2006.71281    0   27 1906.11111 2006.71281  5.28%     -    0s
     0     0 1988.32359    0   24 1906.11111 1988.32359  4.31%     -    0s
H    0     0                    1910.0000000 1988.32359  4.10%     -    0s
H    0     0                    1945.0000000 1988.32359  2.23%     -    0s
     0     0 1988.32359    0   28 1945.00000 1988.32359  2.23%     -    0s
     0     0 1985.27778    0   28 1945.00000 1985.27778  2.07%     -    0s

Cutting planes:
  Gomory: 2
  Implied bound: 6
  MIR: 35
  Flow cover: 51
  Relax-and-lift: 17

Explored 1 nodes (1194 simplex iterations) in 0.12 seconds (0.13 work units)
Thread count was 20 (of 20 available processors)

Solution count 3: 1945 1910 1906.11 

Optimal solution found (tolerance 1.00e-02)
Best objective 1.945000000000e+03, best bound 1.963750000000e+03, gap 0.9640%

User-callback calls 985, time in user-callback 0.00 sec
